NAME : bier127
TYPE : OP
DIMENSION : 127
COST_LIMIT : 59141
ROUTE_NODES : 98
ROUTE_SCORE : 5381
ROUTE_COST : 59055
NODE_SEQUENCE_SECTION
1
7
105
15
106
6
108
20
17
21
18
77
79
80
27
30
41
36
37
35
40
43
34
42
39
38
26
25
33
122
28
29
32
83
82
126
81
84
117
78
76
69
96
88
87
86
85
110
71
68
74
73
67
8
72
19
22
4
23
24
9
11
3
90
116
60
59
62
61
91
58
64
100
10
120
13
115
50
121
56
5
52
124
66
55
47
49
118
46
94
45
103
44
54
57
51
2
16
-1
DEPOT_SECTION
1
-1
EOF
